# Solution for model QNET1
# Objective value = 1.6029692680999999e+04
pi..3931 0
pi..4841 0
pi..4861 0
pi..6861 0
pi..7861 0
pi..3961 0
pi..8C61 0
pi..9D61 0
pi..8E61 0
pi..9I61 0
pi..DI61 0
pi..7871 0
pi..3981 0
pi..8C81 0
pi..9D81 0
pi..8E81 0
pi..9I81 0
pi..DI81 0
pi..4891 0
pi..6891 0
pi..7891 0
pi..8C91 0
pi..9D91 0
pi..8E91 0
pi..9I91 0
pi..DI91 0
pi..48D1 0
pi..68D1 0
pi..78D1 0
pi..39D1 0
pi..8CD1 0
pi..8ED1 0
pi..9ID1 0
pi..DID1 0
pi..48G1 0
pi..68G1 0
pi..78G1 0
pi..39G1 0
pi..8CG1 0
pi..9DG1 0
pi..8EG1 0
pi..9IG1 0
pi..DIG1 0
pi..48H1 0
pi..68H1 0
pi..78H1 0
pi..39H1 0
pi..8CH1 0
pi..9DH1 0
pi..8EH1 0
pi..9IH1 0
pi..DIH1 0
pi..48J1 0
pi..68J1 0
pi..78J1 0
pi..39J1 0
pi..8CJ1 0
pi..9DJ1 0
pi..8EJ1 0
pi..9IJ1 0
pi..DIJ1 0
pi..1212 1
pi..1262 0
pi..1282 0
pi..1292 0
pi..12D2 0
pi..12G2 0
pi..12H2 0
pi..12J2 0
pi..1515 1
pi..1565 0
pi..1585 0
pi..1595 0
pi..15D5 0
pi..15G5 0
pi..15H5 0
pi..15J5 0
pi..1216 0
pi..1516 0
pi..1616 1
pi..1716 0
pi..1816 1
pi..4816 0
pi..7816 0
pi..1916 0
pi..3916 0
pi..1A16 0
pi..1B16 0
pi..8C16 0
pi..1D16 0
pi..9D16 0
pi..1E16 0
pi..8E16 0
pi..1F16 0
pi..1G16 0
pi..1I16 0
pi..9I16 0
pi..DI16 0
pi..1J16 0
pi..1K16 0
pi..3936 0
pi..4846 1
pi..7876 0
pi..1286 0
pi..1586 0
pi..1686 0
pi..1786 0
pi..1986 0
pi..3986 0
pi..1A86 0
pi..1B86 0
pi..8C86 1
pi..1D86 0
pi..9D86 0
pi..1E86 0
pi..8E86 1
pi..1F86 0
pi..1G86 0
pi..1I86 0
pi..9I86 0
pi..DI86 0
pi..1J86 0
pi..1K86 0
pi..1296 0
pi..1596 0
pi..1696 0
pi..1796 0
pi..1896 0
pi..4896 0
pi..7896 0
pi..1A96 0
pi..1B96 0
pi..8C96 0
pi..1D96 0
pi..9D96 0
pi..1E96 0
pi..8E96 0
pi..1F96 0
pi..1G96 0
pi..1I96 0
pi..9I96 0
pi..DI96 0
pi..1J96 0
pi..1K96 0
pi..12D6 0
pi..15D6 0
pi..16D6 0
pi..17D6 0
pi..18D6 0
pi..48D6 0
pi..78D6 0
pi..19D6 0
pi..39D6 0
pi..1AD6 0
pi..1BD6 0
pi..8CD6 0
pi..1ED6 0
pi..8ED6 0
pi..1FD6 0
pi..1GD6 0
pi..1ID6 0
pi..9ID6 0
pi..DID6 0
pi..1JD6 0
pi..1KD6 0
pi..12G6 0
pi..15G6 0
pi..16G6 0
pi..17G6 0
pi..18G6 0
pi..48G6 0
pi..78G6 0
pi..19G6 0
pi..39G6 0
pi..1AG6 0
pi..1BG6 0
pi..8CG6 0
pi..1DG6 0
pi..9DG6 0
pi..1EG6 0
pi..8EG6 0
pi..1FG6 0
pi..1IG6 0
pi..9IG6 0
pi..DIG6 0
pi..1JG6 0
pi..1KG6 0
pi..12H6 0
pi..15H6 0
pi..16H6 0
pi..17H6 0
pi..18H6 0
pi..48H6 0
pi..78H6 0
pi..19H6 0
pi..39H6 0
pi..1AH6 0
pi..1BH6 0
pi..8CH6 0
pi..1DH6 0
pi..9DH6 0
pi..1EH6 0
pi..8EH6 0
pi..1FH6 0
pi..1GH6 0
pi..1IH6 0
pi..9IH6 0
pi..DIH6 0
pi..1JH6 0
pi..1KH6 0
pi..12J6 0
pi..15J6 0
pi..16J6 0
pi..17J6 0
pi..18J6 0
pi..48J6 0
pi..78J6 0
pi..19J6 0
pi..39J6 0
pi..1AJ6 0
pi..1BJ6 0
pi..8CJ6 0
pi..1DJ6 0
pi..9DJ6 0
pi..1EJ6 0
pi..8EJ6 0
pi..1FJ6 0
pi..1GJ6 0
pi..1IJ6 0
pi..9IJ6 0
pi..DIJ6 0
pi..1KJ6 0
pi..1717 1
pi..1767 0
pi..1787 0
pi..1797 0
pi..17D7 0
pi..17G7 0
pi..17H7 0
pi..17J7 0
pi..1218 0
pi..1518 0
pi..1618 0
pi..1718 0
pi..1818 0
pi..4818 0
pi..6818 0
pi..7818 0
pi..1918 0
pi..3918 0
pi..1A18 0
pi..1B18 0
pi..1D18 0
pi..9D18 0
pi..1E18 0
pi..1F18 0
pi..1G18 0
pi..1I18 0
pi..9I18 0
pi..DI18 0
pi..1J18 0
pi..1K18 0
pi..3938 0
pi..4848 0
pi..1268 0
pi..1568 0
pi..1768 0
pi..1868 1
pi..4868 1
pi..6868 1
pi..7868 0
pi..1968 0
pi..3968 0
pi..1A68 0
pi..1B68 0
pi..1D68 0
pi..9D68 0
pi..1E68 0
pi..1F68 0
pi..1G68 0
pi..1I68 0
pi..9I68 0
pi..DI68 0
pi..1J68 0
pi..1K68 0
pi..7878 1
pi..1298 0
pi..1598 0
pi..1698 0
pi..1798 0
pi..1898 0
pi..4898 0
pi..6898 0
pi..7898 0
pi..1A98 0
pi..1B98 0
pi..1D98 0
pi..9D98 0
pi..1E98 0
pi..1F98 0
pi..1G98 0
pi..1I98 0
pi..9I98 0
pi..DI98 0
pi..1J98 0
pi..1K98 0
pi..12D8 0
pi..15D8 0
pi..16D8 0
pi..17D8 0
pi..18D8 0
pi..48D8 0
pi..68D8 0
pi..78D8 0
pi..19D8 0
pi..39D8 0
pi..1AD8 0
pi..1BD8 0
pi..1ED8 0
pi..1FD8 0
pi..1GD8 0
pi..1ID8 0
pi..9ID8 0
pi..DID8 0
pi..1JD8 0
pi..1KD8 0
pi..12G8 0
pi..15G8 0
pi..16G8 0
pi..17G8 0
pi..18G8 0
pi..48G8 0
pi..68G8 0
pi..78G8 0
pi..19G8 0
pi..39G8 0
pi..1AG8 0
pi..1BG8 0
pi..1DG8 0
pi..9DG8 0
pi..1EG8 0
pi..1FG8 0
pi..1IG8 0
pi..9IG8 0
pi..DIG8 0
pi..1JG8 0
pi..1KG8 0
pi..12H8 0
pi..15H8 0
pi..16H8 0
pi..17H8 0
pi..18H8 0
pi..48H8 0
pi..68H8 0
pi..78H8 0
pi..19H8 0
pi..39H8 0
pi..1AH8 0
pi..1BH8 0
pi..1DH8 0
pi..9DH8 0
pi..1EH8 0
pi..1FH8 0
pi..1GH8 0
pi..1IH8 0
pi..9IH8 0
pi..DIH8 0
pi..1JH8 0
pi..1KH8 0
pi..12J8 0
pi..15J8 0
pi..16J8 0
pi..17J8 0
pi..18J8 0
pi..48J8 0
pi..68J8 0
pi..78J8 0
pi..19J8 0
pi..39J8 0
pi..1AJ8 0
pi..1BJ8 0
pi..1DJ8 0
pi..9DJ8 0
pi..1EJ8 0
pi..1FJ8 0
pi..1GJ8 0
pi..1IJ8 0
pi..9IJ8 0
pi..DIJ8 0
pi..1KJ8 0
pi..1219 0
pi..1519 0
pi..1619 0
pi..1719 0
pi..1819 0
pi..4819 0
pi..6819 0
pi..7819 0
pi..1919 1
pi..3919 0
pi..1A19 0
pi..1B19 0
pi..8C19 0
pi..1D19 0
pi..1E19 0
pi..8E19 0
pi..1F19 0
pi..1G19 0
pi..1I19 0
pi..DI19 0
pi..1J19 0
pi..1K19 0
pi..3939 1
pi..4849 0
pi..1269 0
pi..1569 0
pi..1769 0
pi..1869 0
pi..4869 0
pi..6869 0
pi..7869 0
pi..1969 0
pi..3969 0
pi..1A69 0
pi..1B69 0
pi..8C69 0
pi..1D69 0
pi..1E69 0
pi..8E69 0
pi..1F69 0
pi..1G69 0
pi..1I69 0
pi..DI69 0
pi..1J69 0
pi..1K69 0
pi..7879 0
pi..1289 0
pi..1589 0
pi..1689 0
pi..1789 0
pi..1989 0
pi..3989 0
pi..1A89 0
pi..1B89 0
pi..8C89 0
pi..1D89 0
pi..1E89 0
pi..8E89 0
pi..1F89 0
pi..1G89 0
pi..1I89 0
pi..DI89 0
pi..1J89 0
pi..1K89 0
pi..12D9 0
pi..15D9 0
pi..16D9 0
pi..17D9 0
pi..18D9 0
pi..48D9 0
pi..68D9 0
pi..78D9 0
pi..19D9 0
pi..39D9 0
pi..1AD9 0
pi..1BD9 0
pi..8CD9 0
pi..1ED9 0
pi..8ED9 0
pi..1FD9 0
pi..1GD9 0
pi..1ID9 0
pi..DID9 0
pi..1JD9 0
pi..1KD9 0
pi..12G9 0
pi..15G9 0
pi..16G9 0
pi..17G9 0
pi..18G9 0
pi..48G9 0
pi..68G9 0
pi..78G9 0
pi..19G9 0
pi..39G9 0
pi..1AG9 0
pi..1BG9 0
pi..8CG9 0
pi..1DG9 0
pi..1EG9 0
pi..8EG9 0
pi..1FG9 0
pi..1IG9 0
pi..DIG9 0
pi..1JG9 0
pi..1KG9 0
pi..12H9 0
pi..15H9 0
pi..16H9 0
pi..17H9 0
pi..18H9 0
pi..48H9 0
pi..68H9 0
pi..78H9 0
pi..19H9 0
pi..39H9 0
pi..1AH9 0
pi..1BH9 0
pi..8CH9 0
pi..1DH9 0
pi..1EH9 0
pi..8EH9 0
pi..1FH9 0
pi..1GH9 0
pi..1IH9 0
pi..DIH9 0
pi..1JH9 0
pi..1KH9 0
pi..12J9 0
pi..15J9 0
pi..16J9 0
pi..17J9 0
pi..18J9 0
pi..48J9 0
pi..68J9 0
pi..78J9 0
pi..19J9 0
pi..39J9 0
pi..1AJ9 0
pi..1BJ9 0
pi..8CJ9 0
pi..1DJ9 0
pi..1EJ9 0
pi..8EJ9 0
pi..1FJ9 0
pi..1GJ9 0
pi..1IJ9 0
pi..DIJ9 0
pi..1KJ9 0
pi..1A1A 0
pi..1A6A 0
pi..1A8A 0
pi..1A9A 0
pi..1ADA 0
pi..1AGA 0
pi..1AHA 0
pi..1AJA 1
pi..1B1B 1
pi..1B6B 0
pi..1B8B 0
pi..1B9B 0
pi..1BDB 0
pi..1BGB 0
pi..1BHB 0
pi..1BJB 0
pi..8C1C 0
pi..8C6C 1
pi..8C8C 0
pi..8C9C 0
pi..8CDC 0
pi..8CGC 0
pi..8CHC 0
pi..8CJC 0
pi..121D 0
pi..151D 0
pi..161D 0
pi..171D 0
pi..181D 0
pi..481D 0
pi..681D 0
pi..781D 0
pi..191D 0
pi..391D 0
pi..1A1D 0
pi..1B1D 0
pi..8C1D 0
pi..1D1D 0
pi..9D1D 0
pi..1E1D 0
pi..8E1D 0
pi..1F1D 0
pi..1G1D 0
pi..1I1D 0
pi..9I1D 0
pi..1J1D 0
pi..1K1D 0
pi..393D 0
pi..484D 0
pi..126D 0
pi..156D 0
pi..176D 0
pi..186D 0
pi..486D 0
pi..686D 0
pi..786D 0
pi..196D 0
pi..396D 0
pi..1A6D 0
pi..1B6D 0
pi..8C6D 0
pi..1D6D 0
pi..9D6D 0
pi..1E6D 0
pi..8E6D 0
pi..1F6D 0
pi..1G6D 0
pi..1I6D 0
pi..9I6D 0
pi..1J6D 0
pi..1K6D 0
pi..787D 0
pi..128D 0
pi..158D 0
pi..168D 0
pi..178D 0
pi..198D 0
pi..398D 0
pi..1A8D 0
pi..1B8D 0
pi..8C8D 0
pi..1D8D 0
pi..9D8D 0
pi..1E8D 0
pi..8E8D 0
pi..1F8D 0
pi..1G8D 0
pi..1I8D 0
pi..9I8D 0
pi..1J8D 0
pi..1K8D 0
pi..129D 0
pi..159D 0
pi..169D 0
pi..179D 0
pi..189D 0
pi..489D 0
pi..689D 0
pi..789D 0
pi..1A9D 0
pi..1B9D 0
pi..8C9D 0
pi..1D9D 0
pi..9D9D 1
pi..1E9D 0
pi..8E9D 0
pi..1F9D 0
pi..1G9D 0
pi..1I9D 0
pi..9I9D 0
pi..1J9D 0
pi..1K9D 0
pi..12GD 0
pi..15GD 0
pi..16GD 0
pi..17GD 0
pi..18GD 0
pi..48GD 0
pi..68GD 0
pi..78GD 0
pi..19GD 0
pi..39GD 0
pi..1AGD 0
pi..1BGD 0
pi..8CGD 0
pi..1DGD 0
pi..9DGD 0
pi..1EGD 0
pi..8EGD 0
pi..1FGD 0
pi..1IGD 0
pi..9IGD 0
pi..1JGD 0
pi..1KGD 0
pi..12HD 0
pi..15HD 0
pi..16HD 0
pi..17HD 0
pi..18HD 0
pi..48HD 0
pi..68HD 0
pi..78HD 0
pi..19HD 0
pi..39HD 0
pi..1AHD 0
pi..1BHD 0
pi..8CHD 0
pi..1DHD 0
pi..9DHD 0
pi..1EHD 0
pi..8EHD 0
pi..1FHD 0
pi..1GHD 0
pi..1IHD 0
pi..9IHD 0
pi..1JHD 0
pi..1KHD 0
pi..12JD 0
pi..15JD 0
pi..16JD 0
pi..17JD 0
pi..18JD 0
pi..48JD 0
pi..68JD 0
pi..78JD 0
pi..19JD 0
pi..39JD 0
pi..1AJD 0
pi..1BJD 0
pi..8CJD 0
pi..1DJD 1
pi..9DJD 0
pi..1EJD 0
pi..8EJD 0
pi..1FJD 0
pi..1GJD 0
pi..1IJD 0
pi..9IJD 0
pi..1KJD 0
pi..1E1E 1
pi..8E1E 0
pi..1E6E 0
pi..8E6E 1
pi..1E8E 0
pi..8E8E 0
pi..1E9E 0
pi..8E9E 0
pi..1EDE 0
pi..8EDE 0
pi..1EGE 0
pi..8EGE 0
pi..1EHE 0
pi..8EHE 0
pi..1EJE 0
pi..8EJE 0
pi..1F1F 0
pi..1F6F 0
pi..1F8F 0
pi..1F9F 0
pi..1FDF 0
pi..1FGF 0
pi..1FHF 0
pi..1FJF 1
pi..121G 0
pi..151G 0
pi..161G 0
pi..171G 0
pi..181G 0
pi..481G 0
pi..681G 0
pi..781G 0
pi..191G 0
pi..391G 0
pi..1A1G 0
pi..1B1G 0
pi..8C1G 0
pi..1D1G 0
pi..9D1G 0
pi..1E1G 0
pi..8E1G 0
pi..1F1G 0
pi..1G1G 1
pi..1I1G 0
pi..9I1G 0
pi..DI1G 0
pi..1J1G 0
pi..1K1G 0
pi..393G 0
pi..484G 0
pi..126G 0
pi..156G 0
pi..176G 0
pi..186G 0
pi..486G 0
pi..686G 0
pi..786G 0
pi..196G 0
pi..396G 0
pi..1A6G 0
pi..1B6G 0
pi..8C6G 0
pi..1D6G 0
pi..9D6G 0
pi..1E6G 0
pi..8E6G 0
pi..1F6G 0
pi..1G6G 0
pi..1I6G 0
pi..9I6G 0
pi..DI6G 0
pi..1J6G 0
pi..1K6G 0
pi..787G 0
pi..128G 0
pi..158G 0
pi..168G 0
pi..178G 0
pi..198G 0
pi..398G 0
pi..1A8G 0
pi..1B8G 0
pi..8C8G 0
pi..1D8G 0
pi..9D8G 0
pi..1E8G 0
pi..8E8G 0
pi..1F8G 0
pi..1G8G 0
pi..1I8G 0
pi..9I8G 0
pi..DI8G 0
pi..1J8G 0
pi..1K8G 0
pi..129G 0
pi..159G 0
pi..169G 0
pi..179G 0
pi..189G 0
pi..489G 0
pi..689G 0
pi..789G 0
pi..1A9G 0
pi..1B9G 0
pi..8C9G 0
pi..1D9G 0
pi..9D9G 0
pi..1E9G 0
pi..8E9G 0
pi..1F9G 0
pi..1G9G 0
pi..1I9G 0
pi..9I9G 0
pi..DI9G 0
pi..1J9G 0
pi..1K9G 0
pi..12DG 0
pi..15DG 0
pi..16DG 0
pi..17DG 0
pi..18DG 0
pi..48DG 0
pi..68DG 0
pi..78DG 0
pi..19DG 0
pi..39DG 0
pi..1ADG 0
pi..1BDG 0
pi..8CDG 0
pi..1EDG 0
pi..8EDG 0
pi..1FDG 0
pi..1GDG 0
pi..1IDG 0
pi..9IDG 0
pi..DIDG 0
pi..1JDG 0
pi..1KDG 0
pi..12HG 0
pi..15HG 0
pi..16HG 0
pi..17HG 0
pi..18HG 0
pi..48HG 0
pi..68HG 0
pi..78HG 0
pi..19HG 0
pi..39HG 0
pi..1AHG 0
pi..1BHG 0
pi..8CHG 0
pi..1DHG 0
pi..9DHG 0
pi..1EHG 0
pi..8EHG 0
pi..1FHG 0
pi..1GHG 0
pi..1IHG 0
pi..9IHG 0
pi..DIHG 0
pi..1JHG 0
pi..1KHG 0
pi..12JG 0
pi..15JG 0
pi..16JG 0
pi..17JG 0
pi..18JG 0
pi..48JG 0
pi..68JG 0
pi..78JG 0
pi..19JG 0
pi..39JG 0
pi..1AJG 0
pi..1BJG 0
pi..8CJG 0
pi..1DJG 0
pi..9DJG 0
pi..1EJG 0
pi..8EJG 0
pi..1FJG 0
pi..1GJG 0
pi..1IJG 0
pi..9IJG 0
pi..DIJG 0
pi..1KJG 0
pi..121H 0
pi..151H 0
pi..161H 0
pi..171H 0
pi..181H 0
pi..481H 0
pi..681H 0
pi..781H 0
pi..191H 0
pi..391H 0
pi..1A1H 0
pi..1B1H 0
pi..8C1H 0
pi..1D1H 0
pi..9D1H 0
pi..1E1H 0
pi..8E1H 0
pi..1F1H 0
pi..1G1H 0
pi..1I1H 0
pi..9I1H 0
pi..DI1H 0
pi..1J1H 0
pi..1K1H 0
pi..393H 0
pi..484H 0
pi..126H 0
pi..156H 0
pi..176H 0
pi..186H 0
pi..486H 0
pi..686H 0
pi..786H 0
pi..196H 0
pi..396H 0
pi..1A6H 0
pi..1B6H 0
pi..8C6H 0
pi..1D6H 0
pi..9D6H 0
pi..1E6H 0
pi..8E6H 0
pi..1F6H 0
pi..1G6H 0
pi..1I6H 0
pi..9I6H 0
pi..DI6H 0
pi..1J6H 0
pi..1K6H 0
pi..787H 0
pi..128H 0
pi..158H 0
pi..168H 0
pi..178H 0
pi..198H 0
pi..398H 0
pi..1A8H 0
pi..1B8H 0
pi..8C8H 0
pi..1D8H 0
pi..9D8H 0
pi..1E8H 0
pi..8E8H 0
pi..1F8H 0
pi..1G8H 0
pi..1I8H 0
pi..9I8H 0
pi..DI8H 0
pi..1J8H 0
pi..1K8H 0
pi..129H 0
pi..159H 0
pi..169H 0
pi..179H 0
pi..189H 0
pi..489H 0
pi..689H 0
pi..789H 0
pi..1A9H 0
pi..1B9H 0
pi..8C9H 0
pi..1D9H 0
pi..9D9H 0
pi..1E9H 0
pi..8E9H 0
pi..1F9H 0
pi..1G9H 0
pi..1I9H 0
pi..9I9H 0
pi..DI9H 0
pi..1J9H 0
pi..1K9H 0
pi..12DH 0
pi..15DH 0
pi..16DH 0
pi..17DH 0
pi..18DH 0
pi..48DH 0
pi..68DH 0
pi..78DH 0
pi..19DH 0
pi..39DH 0
pi..1ADH 0
pi..1BDH 0
pi..8CDH 0
pi..1EDH 0
pi..8EDH 0
pi..1FDH 0
pi..1GDH 0
pi..1IDH 0
pi..9IDH 0
pi..DIDH 0
pi..1JDH 0
pi..1KDH 0
pi..12GH 0
pi..15GH 0
pi..16GH 0
pi..17GH 0
pi..18GH 0
pi..48GH 0
pi..68GH 0
pi..78GH 0
pi..19GH 0
pi..39GH 0
pi..1AGH 0
pi..1BGH 0
pi..8CGH 0
pi..1DGH 0
pi..9DGH 0
pi..1EGH 0
pi..8EGH 0
pi..1FGH 0
pi..1IGH 0
pi..9IGH 0
pi..DIGH 0
pi..1JGH 0
pi..1KGH 0
pi..12JH 0
pi..15JH 0
pi..16JH 0
pi..17JH 0
pi..18JH 0
pi..48JH 0
pi..68JH 0
pi..78JH 0
pi..19JH 0
pi..39JH 0
pi..1AJH 0
pi..1BJH 0
pi..8CJH 0
pi..1DJH 0
pi..9DJH 0
pi..1EJH 0
pi..8EJH 0
pi..1FJH 0
pi..1GJH 0
pi..1IJH 0
pi..9IJH 0
pi..DIJH 0
pi..1KJH 0
pi..1I1I 0
pi..9I1I 0
pi..DI1I 0
pi..1I6I 0
pi..9I6I 0
pi..DI6I 0
pi..1I8I 0
pi..9I8I 0
pi..DI8I 0
pi..1I9I 0
pi..9I9I 1
pi..DI9I 0
pi..1IDI 0
pi..9IDI 0
pi..DIDI 1
pi..1IGI 0
pi..9IGI 0
pi..DIGI 0
pi..1IHI 0
pi..9IHI 0
pi..DIHI 0
pi..1IJI 1
pi..9IJI 0
pi..DIJI 0
pi..121J 0
pi..151J 0
pi..161J 0
pi..171J 0
pi..181J 0
pi..481J 0
pi..681J 0
pi..781J 0
pi..191J 0
pi..391J 0
pi..1A1J 1
pi..1B1J 0
pi..8C1J 0
pi..1D1J 1
pi..9D1J 0
pi..1E1J 0
pi..8E1J 0
pi..1F1J 1
pi..1G1J 0
pi..1I1J 1
pi..9I1J 0
pi..DI1J 0
pi..1J1J 1
pi..1K1J 0
pi..393J 0
pi..484J 0
pi..126J 0
pi..156J 0
pi..176J 0
pi..186J 0
pi..486J 0
pi..686J 0
pi..786J 0
pi..196J 0
pi..396J 0
pi..1A6J 0
pi..1B6J 0
pi..8C6J 0
pi..1D6J 0
pi..9D6J 0
pi..1E6J 0
pi..8E6J 0
pi..1F6J 0
pi..1G6J 0
pi..1I6J 0
pi..9I6J 0
pi..DI6J 0
pi..1J6J 0
pi..1K6J 0
pi..787J 0
pi..128J 0
pi..158J 0
pi..168J 0
pi..178J 0
pi..198J 0
pi..398J 0
pi..1A8J 0
pi..1B8J 0
pi..8C8J 0
pi..1D8J 0
pi..9D8J 0
pi..1E8J 0
pi..8E8J 0
pi..1F8J 0
pi..1G8J 0
pi..1I8J 0
pi..9I8J 0
pi..DI8J 0
pi..1J8J 0
pi..1K8J 0
pi..129J 0
pi..159J 0
pi..169J 0
pi..179J 0
pi..189J 0
pi..489J 0
pi..689J 0
pi..789J 0
pi..1A9J 0
pi..1B9J 0
pi..8C9J 0
pi..1D9J 0
pi..9D9J 0
pi..1E9J 0
pi..8E9J 0
pi..1F9J 0
pi..1G9J 0
pi..1I9J 0
pi..9I9J 0
pi..DI9J 0
pi..1J9J 0
pi..1K9J 0
pi..12DJ 0
pi..15DJ 0
pi..16DJ 0
pi..17DJ 0
pi..18DJ 0
pi..48DJ 0
pi..68DJ 0
pi..78DJ 0
pi..19DJ 0
pi..39DJ 0
pi..1ADJ 0
pi..1BDJ 0
pi..8CDJ 0
pi..1EDJ 0
pi..8EDJ 0
pi..1FDJ 0
pi..1GDJ 0
pi..1IDJ 0
pi..9IDJ 0
pi..DIDJ 0
pi..1JDJ 0
pi..1KDJ 0
pi..12GJ 0
pi..15GJ 0
pi..16GJ 0
pi..17GJ 0
pi..18GJ 0
pi..48GJ 0
pi..68GJ 0
pi..78GJ 0
pi..19GJ 0
pi..39GJ 0
pi..1AGJ 0
pi..1BGJ 0
pi..8CGJ 0
pi..1DGJ 0
pi..9DGJ 0
pi..1EGJ 0
pi..8EGJ 0
pi..1FGJ 0
pi..1IGJ 0
pi..9IGJ 0
pi..DIGJ 0
pi..1JGJ 0
pi..1KGJ 0
pi..12HJ 0
pi..15HJ 0
pi..16HJ 0
pi..17HJ 0
pi..18HJ 0
pi..48HJ 0
pi..68HJ 0
pi..78HJ 0
pi..19HJ 0
pi..39HJ 0
pi..1AHJ 0
pi..1BHJ 0
pi..8CHJ 0
pi..1DHJ 0
pi..9DHJ 0
pi..1EHJ 0
pi..8EHJ 0
pi..1FHJ 0
pi..1GHJ 0
pi..1IHJ 0
pi..9IHJ 0
pi..DIHJ 0
pi..1JHJ 0
pi..1KHJ 0
pi..1K1K 1
pi..1K6K 0
pi..1K8K 0
pi..1K9K 0
pi..1KDK 0
pi..1KGK 0
pi..1KHK 0
pi..1KJK 0
bet...12 0
bet...13 0
bet...14 0
bet...15 2
bet...16 1
bet...26 0
bet...36 0
bet...46 1
bet...56 0
bet...17 1
bet...67 0
bet...18 0
bet...28 0
bet...38 0
bet...48 0
bet...58 0
bet...68 0
bet...78 1
bet...19 3
bet...29 0
bet...39 1
bet...49 0
bet...59 0
bet...69 0
bet...79 0
bet...89 0
bet...1A 0
bet...6A 0
bet...8A 0
bet...9A 0
bet...1B 2
bet...6B 0
bet...8B 0
bet...9B 0
bet...1C 0
bet...6C 1
bet...8C 0
bet...9C 0
bet...1D 0
bet...2D 0
bet...3D 0
bet...4D 0
bet...5D 0
bet...6D 0
bet...7D 0
bet...8D 0
bet...9D 1
bet...AD 0
bet...BD 0
bet...CD 0
bet...1E 1
bet...6E 1
bet...8E 0
bet...9E 0
bet...DE 0
bet...1F 0
bet...6F 0
bet...8F 0
bet...9F 0
bet...DF 0
bet...1G 6
bet...2G 0
bet...3G 0
bet...4G 0
bet...5G 0
bet...6G 0
bet...7G 0
bet...8G 0
bet...9G 0
bet...AG 0
bet...BG 0
bet...CG 0
bet...DG 0
bet...EG 0
bet...FG 0
bet...1H 0
bet...2H 0
bet...3H 0
bet...4H 0
bet...5H 0
bet...6H 0
bet...7H 0
bet...8H 0
bet...9H 0
bet...AH 0
bet...BH 0
bet...CH 0
bet...DH 0
bet...EH 0
bet...FH 0
bet...GH 0
bet...1I 0
bet...6I 0
bet...8I 0
bet...9I 3
bet...DI 1
bet...GI 0
bet...HI 0
bet...1J 0
bet...2J 0
bet...3J 0
bet...4J 0
bet...5J 0
bet...6J 0
bet...7J 0
bet...8J 0
bet...9J 0
bet...AJ 1
bet...BJ 0
bet...CJ 0
bet...DJ 5
bet...EJ 0
bet...FJ 2
bet...GJ 0
bet...HJ 0
bet...IJ 1
bet...1K 2
bet...6K 0
bet...8K 0
bet...9K 0
bet...DK 0
bet...GK 0
bet...HK 0
bet...JK 0
gam...12 2
gam...16 1
gam...26 0
gam...18 0
gam...28 0
gam...68 2
gam...19 0
gam...29 0
gam...69 0
gam...89 0
gam...1D 0
gam...2D 0
gam...6D 0
gam...8D 0
gam...9D 0
gam...1G 0
gam...2G 0
gam...6G 0
gam...8G 0
gam...9G 0
gam...DG 0
gam...1H 0
gam...2H 0
gam...6H 0
gam...8H 0
gam...9H 0
gam...DH 0
gam...GH 0
gam...9I 0
gam...1J 1
gam...2J 0
gam...6J 0
gam...8J 0
gam...9J 0
gam...DJ 0
gam...GJ 0
gam...HJ 0
c_P...12 1869.5
c_P...13 0
c_P...14 0
c_P...15 443.1
c_P...16 2.3583399999999997e+03
c_P...26 0
c_P...36 0
c_P...46 262.18
c_P...56 0
c_P...17 223.15
c_P...67 0
c_P...18 0
c_P...28 0
c_P...38 0
c_P...48 0
c_P...58 0
c_P...68 1550
c_P...78 130.35
c_P...19 987.6225
c_P...29 0
c_P...39 297.8
c_P...49 0
c_P...59 0
c_P...69 0
c_P...79 0
c_P...89 0
c_P...1A 0
c_P...6A 0
c_P...8A 0
c_P...9A 0
c_P...1B 381.9
c_P...6B 0
c_P...8B 0
c_P...9B 0
c_P...1C 0
c_P...6C 301.44
c_P...8C 0
c_P...9C 0
c_P...1D 0
c_P...2D 0
c_P...3D 0
c_P...4D 0
c_P...5D 0
c_P...6D 0
c_P...7D 0
c_P...8D 0
c_P...9D 161.44
c_P...AD 0
c_P...BD 0
c_P...CD 0
c_P...1E 235.95
c_P...6E 171.55
c_P...8E 0
c_P...9E 0
c_P...DE 0
c_P...1F 0
c_P...6F 0
c_P...8F 0
c_P...9F 0
c_P...DF 0
c_P...1G 1196.814546
c_P...2G 0
c_P...3G 0
c_P...4G 0
c_P...5G 0
c_P...6G 0
c_P...7G 0
c_P...8G 0
c_P...9G 0
c_P...AG 0
c_P...BG 0
c_P...CG 0
c_P...DG 0
c_P...EG 0
c_P...FG 0
c_P...1H 0
c_P...2H 0
c_P...3H 0
c_P...4H 0
c_P...5H 0
c_P...6H 0
c_P...7H 0
c_P...8H 0
c_P...9H 0
c_P...AH 0
c_P...BH 0
c_P...CH 0
c_P...DH 0
c_P...EH 0
c_P...FH 0
c_P...GH 0
c_P...1I 0
c_P...6I 0
c_P...8I 0
c_P...9I 421.65
c_P...DI 182.35
c_P...GI 0
c_P...HI 0
c_P...1J 2505.28
c_P...2J 0
c_P...3J 0
c_P...4J 0
c_P...5J 0
c_P...6J 0
c_P...7J 0
c_P...8J 0
c_P...9J 0
c_P...AJ 430.4
c_P...BJ 0
c_P...CJ 0
c_P...DJ 1033.563635
c_P...EJ 0
c_P...FJ 321.1
c_P...GJ 0
c_P...HJ 0
c_P...IJ 289.512
c_P...1K 274.7
c_P...6K 0
c_P...8K 0
c_P...9K 0
c_P...DK 0
c_P...GK 0
c_P...HK 0
c_P...JK 0
